results_rootrelaxation/bin018_050_029.srr.sol
solution status: optimal solution found
objective value:                                    0
_var105_                            0.137063763853061 	(obj:0)
_var530_                            0.117161818008141 	(obj:0)
_var564_                           0.0745529958890309 	(obj:0)
_var962_                            0.204119379966429 	(obj:0)
_var2703_                          0.0369495648775369 	(obj:0)
_var2704_                          0.0690316958144467 	(obj:0)
_var2706_                           0.253660450187364 	(obj:0)
_var2707_                          0.0678837353180171 	(obj:0)
_var2709_                           0.298385447869379 	(obj:0)
_var2711_                         0.000339844584613058 	(obj:0)
_var2712_                           0.090453532068038 	(obj:0)
_var2717_                          0.0828127861455417 	(obj:0)
_var2718_                           0.113066634062393 	(obj:0)
_var2719_                           0.244734361002574 	(obj:0)
_var2720_                           0.168159587637304 	(obj:0)
_var2723_                           0.135761297970631 	(obj:0)
_var2724_                           0.457516008524723 	(obj:0)
_var2726_                          0.0331142937639983 	(obj:0)
_var2734_                           0.119428426336263 	(obj:0)
_var2735_                          0.0959160615230193 	(obj:0)
_var2742_                            0.11628025052158 	(obj:0)
_var2746_                           0.166911106081892 	(obj:0)
_var2748_                          0.0830038613866648 	(obj:0)
_var2750_                           0.277075580682135 	(obj:0)
_var2752_                          0.0759199807445419 	(obj:0)
_var2755_                           0.183296650898142 	(obj:0)
_var2761_                           0.267671112391098 	(obj:0)
_var2762_                           0.198314698562812 	(obj:0)
_var2769_                          0.0780079317629763 	(obj:0)
_var2772_                           0.107965066495478 	(obj:0)
_var2773_                           0.147174473669343 	(obj:0)
_var2775_                          0.0268710970479275 	(obj:0)
_var2777_                          0.0860132915295738 	(obj:0)
_var2779_                          0.0736112685012406 	(obj:0)
_var2784_                           0.209432402508435 	(obj:0)
_var2785_                           0.119578043100803 	(obj:0)
_var2786_                          0.0275434970507993 	(obj:0)
_var2788_                           0.132336781776353 	(obj:0)
_var2789_                           0.246335194403584 	(obj:0)
_var2796_                          0.0249690734409591 	(obj:0)
_var2797_                          0.0763769883022052 	(obj:0)
_var2799_                           0.382886619319845 	(obj:0)
_var2803_                          0.0603067841734851 	(obj:0)
_var2804_                           0.145754700825045 	(obj:0)
_var2805_                           0.134061897565179 	(obj:0)
_var2806_                           0.209569899192843 	(obj:0)
_var2808_                          0.0198936266742267 	(obj:0)
_var2809_                          0.0522927279595371 	(obj:0)
_var2810_                           0.393050975735463 	(obj:0)
_var2815_                          0.0252895909980087 	(obj:0)
_var2818_                          0.0813516553054429 	(obj:0)
_var2819_                           0.187790155473746 	(obj:0)
_var2820_                           0.235263664559854 	(obj:0)
_var2824_                           0.276290219322887 	(obj:0)
_var2830_                           0.126231093260049 	(obj:0)
_var2831_                          0.0987032312705025 	(obj:0)
_var2832_                           0.217581438974938 	(obj:0)
_var2833_                          0.0892859505217382 	(obj:0)
_var2834_                           0.138216445188524 	(obj:0)
_var2835_                           0.314190825756909 	(obj:0)
_var2836_                          0.0298487290093339 	(obj:0)
_var2839_                           0.116885600713844 	(obj:0)
_var2843_                          0.0638415844205401 	(obj:0)
_var2847_                           0.154206100143751 	(obj:0)
_var2848_                           0.112834778531697 	(obj:0)
_var2849_                           0.157786036119267 	(obj:0)
_var2851_                          0.0829849914754784 	(obj:0)
_var2854_                           0.104620807081865 	(obj:0)
_var2859_                          0.0571988194950531 	(obj:0)
_var2860_                           0.168991723184902 	(obj:0)
_var2862_                           0.118997424314987 	(obj:0)
_var2863_                           0.359555579489454 	(obj:0)
_var2864_                           0.130054285584263 	(obj:0)
_var2866_                          0.0107257900490134 	(obj:0)
_var2867_                          0.0688203317632826 	(obj:0)
_var2868_                           0.289679876886244 	(obj:0)
_var2870_                          0.0536021179611232 	(obj:0)
_var2873_                           0.104384675517934 	(obj:0)
_var2874_                          0.0773994651556699 	(obj:0)
_var2875_                           0.127701214884713 	(obj:0)
_var2876_                          0.0575876881752379 	(obj:0)
_var2878_                           0.064091492794675 	(obj:0)
_var2880_                           0.116156153441877 	(obj:0)
_var2881_                           0.155209872069253 	(obj:0)
_var2884_                          0.0954745551420447 	(obj:0)
_var2887_                          0.0371626491458128 	(obj:0)
_var2888_                           0.034464196716914 	(obj:0)
_var2889_                          0.0941486886874536 	(obj:0)
_var2890_                           0.118162049259462 	(obj:0)
_var2891_                          0.0203417989240115 	(obj:0)
_var2892_                           0.156135072142587 	(obj:0)
_var2893_                           0.113473730640124 	(obj:0)
_var2896_                          0.0520168914620389 	(obj:0)
_var2899_                           0.194692480421101 	(obj:0)
_var2900_                           0.100654881282338 	(obj:0)
_var2902_                           0.075777456992839 	(obj:0)
_var2903_                          0.0885544007137278 	(obj:0)
_var2906_                           0.241838451366435 	(obj:0)
_var2909_                           0.132140583551918 	(obj:0)
_var2911_                          0.0344093042284828 	(obj:0)
_var2912_                          0.0876262370805752 	(obj:0)
_var2914_                           0.240073302450974 	(obj:0)
_var2917_                          0.0806558581684351 	(obj:0)
_var2919_                            0.15860841501003 	(obj:0)
_var2922_                          0.0757686892542105 	(obj:0)
_var2923_                          0.0883877460974976 	(obj:0)
_var2925_                          0.0322524334908134 	(obj:0)
_var2929_                          0.0401413041376061 	(obj:0)
_var2930_                           0.327828042551566 	(obj:0)
_var2933_                           0.169253141989017 	(obj:0)
_var2934_                           0.117725790406341 	(obj:0)
_var2935_                          0.0668829306899043 	(obj:0)
_var2936_                           0.142082580272241 	(obj:0)
_var2938_                           0.221351522762428 	(obj:0)
_var2939_                           0.050376184423597 	(obj:0)
_var2940_                          0.0470022781789243 	(obj:0)
_var2942_                          0.0538077956250124 	(obj:0)
_var2943_                          0.0344670792145884 	(obj:0)
_var2946_                           0.148445845367888 	(obj:0)
_var2951_                          0.0854612340352289 	(obj:0)
_var2952_                          0.0816234862876215 	(obj:0)
_var2953_                           0.112650234174643 	(obj:0)
_var2955_                          0.0434077907148728 	(obj:0)
_var2957_                          0.0050864582453623 	(obj:0)
_var2958_                          0.0863894904895421 	(obj:0)
_var2960_                          0.0591278311153495 	(obj:0)
_var2961_                          0.0712766681774785 	(obj:0)
_var2962_                          0.0928117968558177 	(obj:0)
_var2963_                          0.0541797898523773 	(obj:0)
_var2964_                          0.0836446085084565 	(obj:0)
_var2967_                          0.0614362912336819 	(obj:0)
_var2972_                          0.0552864529387974 	(obj:0)
_var2973_                          0.0363594897955486 	(obj:0)
_var2974_                          0.0611937847654913 	(obj:0)
_var2975_                          0.0738782736941415 	(obj:0)
_var2977_                          0.0480026063423586 	(obj:0)
_var2978_                           0.057445453075186 	(obj:0)
_var2980_                          0.0436663837767422 	(obj:0)
_var2984_                         0.00661227110117278 	(obj:0)
_var2986_                          0.0699560618840669 	(obj:0)
_var2988_                          0.0293951350333492 	(obj:0)
_var2990_                          0.0123860788507846 	(obj:0)
_var2991_                          0.0718535308312163 	(obj:0)
_var2992_                          0.0287920784687021 	(obj:0)
_var2994_                          0.0189609197562617 	(obj:0)
_var2995_                          0.0419874517075225 	(obj:0)
_var2996_                          0.0353820224600567 	(obj:0)
_var2997_                          0.0525177207330952 	(obj:0)
_var2999_                           0.016543852226597 	(obj:0)
_var3001_                          0.0227261790006926 	(obj:0)
_var3003_                          0.0620662030048319 	(obj:0)
_var3006_                          0.0497313264112806 	(obj:0)
