results_rootrelaxation/bin018_050_029.srr.log
SCIP version 8.0.3.5 [precision: 8 byte] [memory: block] [mode: optimized] [LP solver: Soplex 6.0.1.3] [GitHash: 438792519e]
Copyright (c) 2002-2023 Zuse Institute Berlin (ZIB)

External libraries: 
  Readline 8.1         GNU library for command line editing (gnu.org/s/readline)
  Soplex 6.0.1.3       Linear Programming Solver developed at Zuse Institute Berlin (soplex.zib.de) [GitHash: 713be0fe]
  CppAD 20180000.0     Algorithmic Differentiation of C++ algorithms developed by B. Bell (github.com/coin-or/CppAD)
  ZLIB 1.2.11          General purpose compression library by J. Gailly and M. Adler (zlib.net)
  bliss 0.77           Computing Graph Automorphism Groups by T. Junttila and P. Kaski (www.tcs.hut.fi/Software/bliss/)

user parameter file <scip.set> not found - using default parameters

srr/relaxation = TRUE

read problem <instances/bin018_050_029.srr>
============

Original problem: 
original problem has 0 variables (0 bin, 0 int, 0 impl, 0 cont) and 170 constraints

presolving:
presolving (1 rounds: 1 fast, 1 medium, 1 exhaustive):
 0 deleted vars, 0 deleted constraints, 0 added constraints, 0 tightened bounds, 0 added holes, 0 changed sides, 0 changed coefficients
 0 implications, 0 cliques
presolved problem has 0 variables (0 bin, 0 int, 0 impl, 0 cont) and 170 constraints
    170 constraints of type <linear>
Presolving Time: 0.00

 time | node  | left  |LP iter|LP it/n|mem/heur|mdpt |vars |cons |rows |cuts |sepa|confs|strbr|  dualbound   | primalbound  |  gap   | compl. 
  0.0s|     1 |     0 |     1 |     - |   922k |   0 |   1 | 170 | 170 |   0 |  0 |   0 |   0 |      --      |      --      |    Inf | unknown
  0.2s|     1 |     0 |  1488 |     - |  7207k |   0 |1615 | 170 | 170 |   0 |  0 |   0 |   0 |      --      |      --      |    Inf | unknown
r 0.9s|     1 |     0 |  6651 |     - |simplero|   0 |2686 | 170 | 170 |   0 |  0 |   0 |   0 |      --      | 3.463993e+01 |    Inf | unknown
r 0.9s|     1 |     0 |  6724 |     - |simplero|   0 |2703 | 170 | 170 |   0 |  0 |   0 |   0 |      --      | 3.386161e+01 |    Inf | unknown
r 0.9s|     1 |     0 |  6830 |     - |simplero|   0 |2720 | 170 | 170 |   0 |  0 |   0 |   0 |      --      | 3.039061e+01 |    Inf | unknown
r 0.9s|     1 |     0 |  6972 |     - |simplero|   0 |2737 | 170 | 170 |   0 |  0 |   0 |   0 |      --      | 2.676965e+01 |    Inf | unknown
r 1.0s|     1 |     0 |  7185 |     - |simplero|   0 |2754 | 170 | 170 |   0 |  0 |   0 |   0 |      --      | 2.412798e+01 |    Inf | unknown
r 1.0s|     1 |     0 |  7374 |     - |simplero|   0 |2771 | 170 | 170 |   0 |  0 |   0 |   0 |      --      | 2.220828e+01 |    Inf | unknown
r 1.0s|     1 |     0 |  7495 |     - |simplero|   0 |2788 | 170 | 170 |   0 |  0 |   0 |   0 |      --      | 1.964712e+01 |    Inf | unknown
r 1.0s|     1 |     0 |  7553 |     - |simplero|   0 |2788 | 170 | 170 |   0 |  0 |   0 |   0 |      --      | 1.945101e+01 |    Inf | unknown
r 1.0s|     1 |     0 |  7561 |     - |simplero|   0 |2788 | 170 | 170 |   0 |  0 |   0 |   0 |      --      | 1.944913e+01 |    Inf | unknown
r 1.0s|     1 |     0 |  7685 |     - |simplero|   0 |2805 | 170 | 170 |   0 |  0 |   0 |   0 |      --      | 1.712507e+01 |    Inf | unknown
r 1.0s|     1 |     0 |  7756 |     - |simplero|   0 |2805 | 170 | 170 |   0 |  0 |   0 |   0 |      --      | 1.676945e+01 |    Inf | unknown
r 1.1s|     1 |     0 |  7923 |     - |simplero|   0 |2822 | 170 | 170 |   0 |  0 |   0 |   0 |      --      | 1.483144e+01 |    Inf | unknown
r 1.1s|     1 |     0 |  7961 |     - |simplero|   0 |2822 | 170 | 170 |   0 |  0 |   0 |   0 |      --      | 1.472628e+01 |    Inf | unknown
 time | node  | left  |LP iter|LP it/n|mem/heur|mdpt |vars |cons |rows |cuts |sepa|confs|strbr|  dualbound   | primalbound  |  gap   | compl. 
r 1.1s|     1 |     0 |  7976 |     - |simplero|   0 |2822 | 170 | 170 |   0 |  0 |   0 |   0 |      --      | 1.471986e+01 |    Inf | unknown
r 1.1s|     1 |     0 |  8132 |     - |simplero|   0 |2839 | 170 | 170 |   0 |  0 |   0 |   0 |      --      | 1.200712e+01 |    Inf | unknown
r 1.1s|     1 |     0 |  8200 |     - |simplero|   0 |2839 | 170 | 170 |   0 |  0 |   0 |   0 |      --      | 1.133548e+01 |    Inf | unknown
r 1.1s|     1 |     0 |  8235 |     - |simplero|   0 |2839 | 170 | 170 |   0 |  0 |   0 |   0 |      --      | 1.129852e+01 |    Inf | unknown
r 1.1s|     1 |     0 |  8244 |     - |simplero|   0 |2839 | 170 | 170 |   0 |  0 |   0 |   0 |      --      | 1.129657e+01 |    Inf | unknown
r 1.1s|     1 |     0 |  8338 |     - |simplero|   0 |2856 | 170 | 170 |   0 |  0 |   0 |   0 |      --      | 9.704651e+00 |    Inf | unknown
r 1.1s|     1 |     0 |  8421 |     - |simplero|   0 |2856 | 170 | 170 |   0 |  0 |   0 |   0 |      --      | 9.155426e+00 |    Inf | unknown
r 1.1s|     1 |     0 |  8448 |     - |simplero|   0 |2856 | 170 | 170 |   0 |  0 |   0 |   0 |      --      | 9.119632e+00 |    Inf | unknown
r 1.2s|     1 |     0 |  8457 |     - |simplero|   0 |2856 | 170 | 170 |   0 |  0 |   0 |   0 |      --      | 9.113777e+00 |    Inf | unknown
r 1.2s|     1 |     0 |  8459 |     - |simplero|   0 |2856 | 170 | 170 |   0 |  0 |   0 |   0 |      --      | 9.113586e+00 |    Inf | unknown
r 1.2s|     1 |     0 |  8567 |     - |simplero|   0 |2873 | 170 | 170 |   0 |  0 |   0 |   0 |      --      | 8.044289e+00 |    Inf | unknown
r 1.2s|     1 |     0 |  8623 |     - |simplero|   0 |2873 | 170 | 170 |   0 |  0 |   0 |   0 |      --      | 7.850326e+00 |    Inf | unknown
r 1.2s|     1 |     0 |  8655 |     - |simplero|   0 |2873 | 170 | 170 |   0 |  0 |   0 |   0 |      --      | 7.755498e+00 |    Inf | unknown
r 1.2s|     1 |     0 |  8663 |     - |simplero|   0 |2873 | 170 | 170 |   0 |  0 |   0 |   0 |      --      | 7.754543e+00 |    Inf | unknown
r 1.2s|     1 |     0 |  8806 |     - |simplero|   0 |2890 | 170 | 170 |   0 |  0 |   0 |   0 |      --      | 6.478146e+00 |    Inf | unknown
 time | node  | left  |LP iter|LP it/n|mem/heur|mdpt |vars |cons |rows |cuts |sepa|confs|strbr|  dualbound   | primalbound  |  gap   | compl. 
r 1.2s|     1 |     0 |  8885 |     - |simplero|   0 |2890 | 170 | 170 |   0 |  0 |   0 |   0 |      --      | 6.159298e+00 |    Inf | unknown
r 1.2s|     1 |     0 |  8900 |     - |simplero|   0 |2890 | 170 | 170 |   0 |  0 |   0 |   0 |      --      | 6.116412e+00 |    Inf | unknown
r 1.2s|     1 |     0 |  8906 |     - |simplero|   0 |2890 | 170 | 170 |   0 |  0 |   0 |   0 |      --      | 6.115595e+00 |    Inf | unknown
r 1.2s|     1 |     0 |  8908 |     - |simplero|   0 |2890 | 170 | 170 |   0 |  0 |   0 |   0 |      --      | 6.115543e+00 |    Inf | unknown
r 1.2s|     1 |     0 |  9013 |     - |simplero|   0 |2907 | 170 | 170 |   0 |  0 |   0 |   0 |      --      | 5.300837e+00 |    Inf | unknown
r 1.3s|     1 |     0 |  9075 |     - |simplero|   0 |2907 | 170 | 170 |   0 |  0 |   0 |   0 |      --      | 5.015619e+00 |    Inf | unknown
r 1.3s|     1 |     0 |  9098 |     - |simplero|   0 |2907 | 170 | 170 |   0 |  0 |   0 |   0 |      --      | 4.945990e+00 |    Inf | unknown
r 1.3s|     1 |     0 |  9107 |     - |simplero|   0 |2907 | 170 | 170 |   0 |  0 |   0 |   0 |      --      | 4.942226e+00 |    Inf | unknown
  1.3s|     1 |     0 |  9217 |     - |    14M |   0 |2924 | 170 | 170 |   0 |  0 |   0 |   0 |      --      | 4.942226e+00 |    Inf | unknown
r 1.3s|     1 |     0 |  9217 |     - |simplero|   0 |2924 | 170 | 170 |   0 |  0 |   0 |   0 |      --      | 3.325192e+00 |    Inf | unknown
r 1.3s|     1 |     0 |  9280 |     - |simplero|   0 |2924 | 170 | 170 |   0 |  0 |   0 |   0 |      --      | 3.054808e+00 |    Inf | unknown
r 1.3s|     1 |     0 |  9309 |     - |simplero|   0 |2924 | 170 | 170 |   0 |  0 |   0 |   0 |      --      | 3.009614e+00 |    Inf | unknown
r 1.3s|     1 |     0 |  9419 |     - |simplero|   0 |2941 | 170 | 170 |   0 |  0 |   0 |   0 |      --      | 2.236474e+00 |    Inf | unknown
r 1.3s|     1 |     0 |  9458 |     - |simplero|   0 |2941 | 170 | 170 |   0 |  0 |   0 |   0 |      --      | 2.143569e+00 |    Inf | unknown
r 1.3s|     1 |     0 |  9461 |     - |simplero|   0 |2941 | 170 | 170 |   0 |  0 |   0 |   0 |      --      | 2.143230e+00 |    Inf | unknown
 time | node  | left  |LP iter|LP it/n|mem/heur|mdpt |vars |cons |rows |cuts |sepa|confs|strbr|  dualbound   | primalbound  |  gap   | compl. 
r 1.3s|     1 |     0 |  9550 |     - |simplero|   0 |2958 | 170 | 170 |   0 |  0 |   0 |   0 |      --      | 1.583562e+00 |    Inf | unknown
r 1.3s|     1 |     0 |  9629 |     - |simplero|   0 |2958 | 170 | 170 |   0 |  0 |   0 |   0 |      --      | 1.296392e+00 |    Inf | unknown
r 1.4s|     1 |     0 |  9638 |     - |simplero|   0 |2958 | 170 | 170 |   0 |  0 |   0 |   0 |      --      | 1.289781e+00 |    Inf | unknown
r 1.4s|     1 |     0 |  9744 |     - |simplero|   0 |2975 | 170 | 170 |   0 |  0 |   0 |   0 |      --      | 5.887407e-01 |    Inf | unknown
r 1.4s|     1 |     0 |  9769 |     - |simplero|   0 |2975 | 170 | 170 |   0 |  0 |   0 |   0 |      --      | 5.332928e-01 |    Inf | unknown
r 1.4s|     1 |     0 |  9839 |     - |simplero|   0 |2992 | 170 | 170 |   0 |  0 |   0 |   0 |      --      | 3.068764e-01 |    Inf | unknown
r 1.4s|     1 |     0 |  9870 |     - |simplero|   0 |2992 | 170 | 170 |   0 |  0 |   0 |   0 |      --      | 2.507443e-01 |    Inf | unknown
r 1.4s|     1 |     0 |  9881 |     - |simplero|   0 |2992 | 170 | 170 |   0 |  0 |   0 |   0 |      --      | 2.419718e-01 |    Inf | unknown
r 1.4s|     1 |     0 |  9885 |     - |simplero|   0 |2992 | 170 | 170 |   0 |  0 |   0 |   0 |      --      | 2.413644e-01 |    Inf | unknown
r 1.4s|     1 |     0 |  9939 |     - |simplero|   0 |3009 | 170 | 170 |   0 |  0 |   0 |   0 |      --      | 0.000000e+00 |    Inf | unknown
  1.4s|     1 |     0 |  9939 |     - |    15M |   0 |3009 | 170 | 170 |   0 |  0 |   0 |   0 | 0.000000e+00 | 0.000000e+00 |   0.00%| unknown
  1.4s|     1 |     0 |  9939 |     - |    15M |   0 |3009 | 170 | 170 |   0 |  0 |   0 |   0 | 0.000000e+00 | 0.000000e+00 |   0.00%| unknown

SCIP Status        : problem is solved [optimal solution found]
Solving Time (sec) : 1.42
Solving Nodes      : 1
Primal Bound       : +0.00000000000000e+00 (52 solutions)
Dual Bound         : +0.00000000000000e+00
Gap                : 0.00 %

written transformed problem to file <results_rootrelaxation/bin018_050_029.srr.lp>
written transformed problem to file <results_rootrelaxation/bin018_050_029.srr.cip>

written solution information to file <results_rootrelaxation/bin018_050_029.srr.sol>



